; benchmark generated from python API
(set-info :status unknown)
(declare-fun DISJ_W_S2_R_S1 () Bool)
(declare-fun W_S2_V5 () Bool)
(declare-fun W_S2_V2 () Bool)
(declare-fun R_S2_V4 () Bool)
(declare-fun R_S2_V1 () Bool)
(declare-fun R_S2_V5 () Bool)
(declare-fun W_S2_V3 () Bool)
(declare-fun R_S2_V3 () Bool)
(declare-fun W_S1_V4 () Bool)
(declare-fun W_S1_V5 () Bool)
(declare-fun DISJ_W_S1_W_S2 () Bool)
(declare-fun W_S2_V1 () Bool)
(declare-fun DISJ_W_S1_R_S2 () Bool)
(declare-fun DISJ_W_S2_R_S2 () Bool)
(declare-fun R_E1_V4 () Bool)
(declare-fun R_E1_V5 () Bool)
(declare-fun R_S2_V2 () Bool)
(declare-fun R_S1_V4 () Bool)
(declare-fun R_S1_V5 () Bool)
(declare-fun R_S1_V2 () Bool)
(declare-fun R_S1_V3 () Bool)
(declare-fun R_S1_V1 () Bool)
(declare-fun R_E1_V2 () Bool)
(declare-fun DISJ_W_S2_R_E1 () Bool)
(declare-fun R_E1_V3 () Bool)
(declare-fun DISJ_W_S1_R_S1 () Bool)
(declare-fun W_S2_V4 () Bool)
(declare-fun W_S1_V3 () Bool)
(declare-fun W_S1_V2 () Bool)
(declare-fun W_S1_V1 () Bool)
(declare-fun R_E1_V1 () Bool)
(declare-fun DISJ_W_S1_R_E1 () Bool)
(assert
 (let (($x2311 (not W_S2_V5)))
 (let (($x2746 (not W_S2_V2)))
 (let (($x5814 (not R_S2_V4)))
 (let (($x1722 (not R_S2_V1)))
 (let (($x2158 (not (and $x1722 $x5814 $x2746 $x2311 DISJ_W_S2_R_S1))))
 (let (($x113 (not (and $x1722 (not R_S2_V5) $x5814 $x2746 DISJ_W_S2_R_S1))))
 (let (($x4282 (not (and $x1722 $x5814 $x2746 (not W_S2_V3) DISJ_W_S2_R_S1))))
 (let (($x5485 (not (and $x1722 (not R_S2_V3) $x5814 $x2746 DISJ_W_S2_R_S1))))
 (let (($x4997 (not (and (not R_S2_V5) (not W_S1_V4) (not W_S2_V3) DISJ_W_S2_R_S1))))
 (let (($x2100 (not (and (not R_S2_V5) $x5814 (not W_S2_V3) DISJ_W_S2_R_S1))))
 (let (($x1602 (not (and $x5814 (not W_S1_V5) (not W_S2_V3) DISJ_W_S2_R_S1))))
 (let (($x2756 (not (and $x5814 $x2311 (not W_S2_V3) DISJ_W_S2_R_S1))))
 (let (($x2628 (not (and DISJ_W_S1_W_S2 DISJ_W_S2_R_S1))))
 (let (($x2424 (not (and (not R_S2_V3) (not W_S1_V4) $x2311 DISJ_W_S2_R_S1))))
 (let (($x5736 (not W_S2_V1)))
 (let (($x462 (and $x5736 $x2746)))
 (let (($x5318 (not $x462)))
 (let (($x2144 (not (and (not R_S2_V3) $x5814 $x2311 DISJ_W_S2_R_S1))))
 (let (($x4118 (not (and DISJ_W_S1_R_S2 DISJ_W_S2_R_S1))))
 (let (($x2398 (not (and $x2746 DISJ_W_S2_R_S2))))
 (let (($x5824 (not (and DISJ_W_S2_R_S1 DISJ_W_S2_R_S2))))
 (let (($x3119 (not (and W_S1_V4 R_E1_V4))))
 (let (($x5006 (not (and W_S1_V5 R_E1_V5))))
 (let (($x1581 (forall ((V3_0 Int) )(forall ((V2_0 Int) )(forall ((V5_0 Int) )(forall ((V4_0 Int) )(forall ((MW_S1_V1 Bool) )(forall ((MW_S1_V3 Bool) )(forall ((MW_S1_V2 Bool) )(forall ((MW_S1_V5 Bool) )(forall ((MW_S1_V4 Bool) )(forall ((MW_S2_V1 Bool) )(forall ((MW_S2_V3 Bool) )(forall ((MW_S2_V2 Bool) )(forall ((MW_S2_V5 Bool) )(forall ((MW_S2_V4 Bool) )(forall ((S1_V1_!2447 Int) )(forall ((S1_V1_!2457 Int) )(forall ((S1_V1_!2468 Int) )(forall ((S2_V5_!2455 Int) )(forall ((S2_V5_!2465 Int) )(forall ((S2_V5_!2477 Int) )(forall ((S2_V5_!2482 Int) )(forall ((S1_V3_!2448 Int) )(forall ((S1_V3_!2458 Int) )(forall ((S1_V3_!2469 Int) )(forall ((S1_V2_!2449 Int) )(forall ((S1_V2_!2459 Int) )(forall ((S1_V2_!2470 Int) )(forall ((E1_!2446 Int) )(forall ((E1_!2467 Int) )(forall ((E1_!2473 Int) )(forall ((S2_V4_!2456 Int) )(forall ((S2_V4_!2466 Int) )(forall ((S2_V4_!2478 Int) )(forall ((S2_V4_!2483 Int) )(forall ((S1_V5_!2450 Int) )(forall ((S1_V5_!2460 Int) )(forall ((S1_V5_!2471 Int) )(forall ((S2_V1_!2452 Int) )(forall ((S2_V1_!2462 Int) )(forall ((S2_V1_!2474 Int) )(forall ((S2_V1_!2479 Int) )(forall ((S1_V4_!2451 Int) )(forall ((S1_V4_!2461 Int) )(forall ((S1_V4_!2472 Int) )(forall ((S2_V2_!2454 Int) )(forall ((S2_V2_!2464 Int) )(forall ((S2_V2_!2476 Int) )(forall ((S2_V2_!2481 Int) )(forall ((S2_V3_!2453 Int) )(forall ((S2_V3_!2463 Int) )(forall ((S2_V3_!2475 Int) )(forall ((S2_V3_!2480 Int) )(let (($x2210 (= (ite MW_S2_V4 S2_V4_!2466 (ite MW_S1_V4 S1_V4_!2461 (ite MW_S2_V4 S2_V4_!2456 (ite MW_S1_V4 S1_V4_!2451 V4_0)))) (ite MW_S2_V4 S2_V4_!2483 (ite MW_S1_V4 S1_V4_!2472 V4_0)))))
 (let (($x779 (= (ite MW_S2_V5 S2_V5_!2465 (ite MW_S1_V5 S1_V5_!2460 (ite MW_S2_V5 S2_V5_!2455 (ite MW_S1_V5 S1_V5_!2450 V5_0)))) (ite MW_S2_V5 S2_V5_!2482 (ite MW_S1_V5 S1_V5_!2471 V5_0)))))
 (let ((?x4022 (ite MW_S1_V2 S1_V2_!2470 V2_0)))
 (let ((?x2737 (ite MW_S2_V2 S2_V2_!2481 ?x4022)))
 (let ((?x1961 (ite MW_S1_V2 S1_V2_!2449 V2_0)))
 (let ((?x2702 (ite MW_S2_V2 S2_V2_!2454 ?x1961)))
 (let ((?x2720 (ite MW_S1_V2 S1_V2_!2459 ?x2702)))
 (let ((?x3662 (ite MW_S2_V2 S2_V2_!2464 ?x2720)))
 (let (($x3248 (= (ite MW_S2_V3 S2_V3_!2463 (ite MW_S1_V3 S1_V3_!2458 (ite MW_S2_V3 S2_V3_!2453 (ite MW_S1_V3 S1_V3_!2448 V3_0)))) (ite MW_S2_V3 S2_V3_!2480 (ite MW_S1_V3 S1_V3_!2469 V3_0)))))
 (let ((?x862 (ite MW_S2_V1 S2_V1_!2474 E1_!2473)))
 (let ((?x3024 (+ 1 ?x862)))
 (let ((?x950 (ite MW_S2_V1 S2_V1_!2479 ?x3024)))
 (let ((?x3904 (ite MW_S1_V1 S1_V1_!2447 E1_!2446)))
 (let ((?x3852 (ite MW_S2_V1 S2_V1_!2452 ?x3904)))
 (let ((?x5166 (+ 1 ?x3852)))
 (let ((?x5051 (ite MW_S1_V1 S1_V1_!2457 ?x5166)))
 (let ((?x2414 (ite MW_S2_V1 S2_V1_!2462 ?x5051)))
 (let (($x2306 (and (not (<= V2_0 E1_!2446)) (not (<= ?x2702 ?x5166)) (>= ?x2414 (+ (- 1) ?x3662)) (not (<= V2_0 E1_!2467)) (>= (ite MW_S1_V1 S1_V1_!2468 E1_!2467) (+ (- 1) ?x4022)) (not (<= ?x4022 E1_!2473)) (not (<= (ite MW_S2_V2 S2_V2_!2476 ?x4022) ?x3024)) (>= ?x950 (+ (- 1) ?x2737)))))
 (let (($x727 (= S2_V3_!2475 S2_V3_!2480)))
 (let (($x5814 (not R_S2_V4)))
 (let (($x140 (or $x5814 (= (ite MW_S1_V4 S1_V4_!2472 V4_0) (ite MW_S2_V4 S2_V4_!2478 (ite MW_S1_V4 S1_V4_!2472 V4_0))))))
 (let (($x4805 (not R_S2_V5)))
 (let (($x570 (or $x4805 (= (ite MW_S1_V5 S1_V5_!2471 V5_0) (ite MW_S2_V5 S2_V5_!2477 (ite MW_S1_V5 S1_V5_!2471 V5_0))))))
 (let (($x1709 (not R_S2_V3)))
 (let (($x1784 (or $x1709 (= (ite MW_S1_V3 S1_V3_!2469 V3_0) (ite MW_S2_V3 S2_V3_!2475 (ite MW_S1_V3 S1_V3_!2469 V3_0))))))
 (let (($x1983 (and (or (not R_S2_V1) (= E1_!2473 ?x3024)) $x1784 (or (not R_S2_V2) (= ?x4022 (ite MW_S2_V2 S2_V2_!2476 ?x4022))) $x570 $x140)))
 (let (($x6081 (not $x1983)))
 (let (($x5042 (= S2_V3_!2475 S2_V3_!2463)))
 (let ((?x3020 (ite MW_S1_V4 S1_V4_!2451 V4_0)))
 (let ((?x1638 (ite MW_S2_V4 S2_V4_!2456 ?x3020)))
 (let ((?x1395 (ite MW_S1_V4 S1_V4_!2461 ?x1638)))
 (let ((?x2749 (ite MW_S1_V4 S1_V4_!2472 V4_0)))
 (let ((?x1249 (ite MW_S1_V5 S1_V5_!2450 V5_0)))
 (let ((?x5092 (ite MW_S2_V5 S2_V5_!2455 ?x1249)))
 (let ((?x5949 (ite MW_S1_V5 S1_V5_!2460 ?x5092)))
 (let ((?x2213 (ite MW_S1_V5 S1_V5_!2471 V5_0)))
 (let ((?x121 (ite MW_S1_V3 S1_V3_!2448 V3_0)))
 (let ((?x2783 (ite MW_S2_V3 S2_V3_!2453 ?x121)))
 (let ((?x2313 (ite MW_S1_V3 S1_V3_!2458 ?x2783)))
 (let ((?x2241 (ite MW_S1_V3 S1_V3_!2469 V3_0)))
 (let (($x1237 (and (or (not R_S2_V1) (= E1_!2473 ?x5051)) (or $x1709 (= ?x2241 ?x2313)) (or (not R_S2_V2) (= ?x4022 ?x2720)) (or $x4805 (= ?x2213 ?x5949)) (or $x5814 (= ?x2749 ?x1395)))))
 (let (($x1344 (not $x1237)))
 (let (($x1945 (= S2_V3_!2475 S2_V3_!2453)))
 (let (($x4803 (and (or (not R_S2_V1) (= E1_!2473 ?x3904)) (or $x1709 (= ?x2241 ?x121)) (or (not R_S2_V2) (= ?x4022 ?x1961)) (or $x4805 (= ?x2213 ?x1249)) (or $x5814 (= ?x2749 ?x3020)))))
 (let (($x547 (not $x4803)))
 (let (($x1406 (= S2_V3_!2463 S2_V3_!2480)))
 (let (($x5867 (and (or (not R_S2_V1) (= ?x5051 ?x3024)) (or $x1709 (= ?x2313 (ite MW_S2_V3 S2_V3_!2475 ?x2241))) (or (not R_S2_V2) (= ?x2720 (ite MW_S2_V2 S2_V2_!2476 ?x4022))) (or $x4805 (= ?x5949 (ite MW_S2_V5 S2_V5_!2477 ?x2213))) (or $x5814 (= ?x1395 (ite MW_S2_V4 S2_V4_!2478 ?x2749))))))
 (let (($x4764 (not $x5867)))
 (let (($x3044 (= S2_V3_!2463 S2_V3_!2453)))
 (let (($x5351 (and (or (not R_S2_V1) (= ?x5051 ?x3904)) (or $x1709 (= ?x2313 ?x121)) (or (not R_S2_V2) (= ?x2720 ?x1961)) (or $x4805 (= ?x5949 ?x1249)) (or $x5814 (= ?x1395 ?x3020)))))
 (let (($x2522 (not $x5351)))
 (let (($x2121 (= S2_V3_!2453 S2_V3_!2480)))
 (let (($x3189 (and (or (not R_S2_V1) (= ?x3904 ?x3024)) (or $x1709 (= ?x121 (ite MW_S2_V3 S2_V3_!2475 ?x2241))) (or (not R_S2_V2) (= ?x1961 (ite MW_S2_V2 S2_V2_!2476 ?x4022))) (or $x4805 (= ?x1249 (ite MW_S2_V5 S2_V5_!2477 ?x2213))) (or $x5814 (= ?x3020 (ite MW_S2_V4 S2_V4_!2478 ?x2749))))))
 (let (($x3406 (not $x3189)))
 (let (($x4736 (= S2_V2_!2481 S2_V2_!2476)))
 (let (($x455 (and (or (not R_S2_V1) (= ?x862 (+ (- 1) E1_!2473))) (or $x1709 (= (ite MW_S2_V3 S2_V3_!2475 ?x2241) ?x2241)) (or (not R_S2_V2) (= (ite MW_S2_V2 S2_V2_!2476 ?x4022) ?x4022)) (or $x4805 (= (ite MW_S2_V5 S2_V5_!2477 ?x2213) ?x2213)) (or $x5814 (= (ite MW_S2_V4 S2_V4_!2478 ?x2749) ?x2749)))))
 (let (($x3227 (not $x455)))
 (let (($x4175 (= S2_V2_!2481 S2_V2_!2464)))
 (let (($x2469 (and (or (not R_S2_V1) (= ?x862 (+ (- 1) ?x5051))) (or $x1709 (= (ite MW_S2_V3 S2_V3_!2475 ?x2241) ?x2313)) (or (not R_S2_V2) (= (ite MW_S2_V2 S2_V2_!2476 ?x4022) ?x2720)) (or $x4805 (= (ite MW_S2_V5 S2_V5_!2477 ?x2213) ?x5949)) (or $x5814 (= (ite MW_S2_V4 S2_V4_!2478 ?x2749) ?x1395)))))
 (let (($x5802 (= S2_V2_!2464 S2_V2_!2476)))
 (let (($x665 (and (or (not R_S2_V1) (= ?x5051 E1_!2473)) (or $x1709 (= ?x2313 ?x2241)) (or (not R_S2_V2) (= ?x2720 ?x4022)) (or $x4805 (= ?x5949 ?x2213)) (or $x5814 (= ?x1395 ?x2749)))))
 (let (($x2713 (not $x665)))
 (let (($x1517 (= S2_V2_!2454 S2_V2_!2476)))
 (let (($x3428 (and (or (not R_S2_V1) (= ?x3904 E1_!2473)) (or $x1709 (= ?x121 ?x2241)) (or (not R_S2_V2) (= ?x1961 ?x4022)) (or $x4805 (= ?x1249 ?x2213)) (or $x5814 (= ?x3020 ?x2749)))))
 (let (($x359 (not $x3428)))
 (let (($x1253 (= S2_V2_!2454 S2_V2_!2464)))
 (let (($x3652 (and (or (not R_S2_V1) (= ?x3904 ?x5051)) (or $x1709 (= ?x121 ?x2313)) (or (not R_S2_V2) (= ?x1961 ?x2720)) (or $x4805 (= ?x1249 ?x5949)) (or $x5814 (= ?x3020 ?x1395)))))
 (let (($x5445 (not $x3652)))
 (let (($x75 (= S1_V4_!2472 S1_V4_!2461)))
 (let (($x2208 (not R_S1_V4)))
 (let (($x1017 (or $x2208 (= V4_0 ?x1638))))
 (let (($x1862 (not R_S1_V5)))
 (let (($x2015 (or $x1862 (= V5_0 ?x5092))))
 (let (($x3728 (not R_S1_V2)))
 (let (($x746 (or $x3728 (= V2_0 ?x2702))))
 (let (($x1314 (not R_S1_V3)))
 (let (($x3140 (or $x1314 (= V3_0 ?x2783))))
 (let (($x710 (not (and (or (not R_S1_V1) (= E1_!2467 ?x5166)) $x3140 $x746 $x2015 $x1017))))
 (let (($x3581 (not (and (or (not R_S1_V1) (= E1_!2446 ?x5166)) $x3140 $x746 $x2015 $x1017))))
 (let (($x3072 (and (or (not R_S2_V1) (= ?x862 (+ (- 1) ?x3904))) (or $x1709 (= (ite MW_S2_V3 S2_V3_!2475 ?x2241) ?x121)) (or (not R_S2_V2) (= (ite MW_S2_V2 S2_V2_!2476 ?x4022) ?x1961)) (or $x4805 (= (ite MW_S2_V5 S2_V5_!2477 ?x2213) ?x1249)) (or $x5814 (= (ite MW_S2_V4 S2_V4_!2478 ?x2749) ?x3020)))))
 (let (($x1267 (and (or (not R_E1_V2) (= V2_0 ?x4022)) (or (not R_E1_V5) (= V5_0 ?x2213)) (or (not R_E1_V4) (= V4_0 ?x2749)))))
 (let (($x1393 (not $x1267)))
 (let (($x5727 (= E1_!2467 E1_!2446)))
 (let (($x24 (or $x2208 (= ?x1638 V4_0))))
 (let (($x5469 (or $x1862 (= ?x5092 V5_0))))
 (let (($x491 (or $x3728 (= ?x2702 V2_0))))
 (let (($x2166 (or $x1314 (= ?x2783 V3_0))))
 (let (($x847 (and (or (not R_S1_V1) (= ?x3852 (+ (- 1) E1_!2467))) $x2166 $x491 $x5469 $x24)))
 (let (($x708 (not $x847)))
 (let (($x1765 (= S1_V2_!2459 S1_V2_!2449)))
 (let (($x2380 (and (or (not R_S1_V1) (= ?x3852 (+ (- 1) E1_!2446))) $x2166 $x491 $x5469 $x24)))
 (let (($x2281 (not $x2380)))
 (let (($x6060 (and (or $x2281 (= S1_V1_!2457 S1_V1_!2447)) (or (not (or (not R_S1_V1) $x5727)) (= S1_V1_!2468 S1_V1_!2447)) (or $x710 (= S1_V1_!2468 S1_V1_!2457)) (or $x5445 (= S2_V5_!2455 S2_V5_!2465)) (or $x359 (= S2_V5_!2455 S2_V5_!2477)) (or $x3406 (= S2_V5_!2455 S2_V5_!2482)) (or $x2713 (= S2_V5_!2465 S2_V5_!2477)) (or $x4764 (= S2_V5_!2465 S2_V5_!2482)) (or $x3227 (= S2_V5_!2482 S2_V5_!2477)) (or $x2281 (= S1_V3_!2458 S1_V3_!2448)) (or $x708 (= S1_V3_!2458 S1_V3_!2469)) (or (not (or (not R_S1_V1) $x5727)) (= S1_V3_!2469 S1_V3_!2448)) (or $x2281 $x1765) (or $x708 (= S1_V2_!2459 S1_V2_!2470)) (or (not (or (not R_S1_V1) $x5727)) (= S1_V2_!2470 S1_V2_!2449)) (or $x1393 (= E1_!2446 E1_!2473)) $x5727 (or $x1393 (= E1_!2467 E1_!2473)) (or $x2522 (= S2_V4_!2466 S2_V4_!2456)) (or $x2713 (= S2_V4_!2466 S2_V4_!2478)) (or $x4764 (= S2_V4_!2466 S2_V4_!2483)) (or $x547 (= S2_V4_!2478 S2_V4_!2456)) (or $x6081 (= S2_V4_!2478 S2_V4_!2483)) (or (not $x3072) (= S2_V4_!2483 S2_V4_!2456)) (or $x3581 (= S1_V5_!2450 S1_V5_!2460)) (or (not (or (not R_S1_V1) $x5727)) (= S1_V5_!2471 S1_V5_!2450)) (or $x710 (= S1_V5_!2471 S1_V5_!2460)) (or $x3406 (= S2_V1_!2452 S2_V1_!2479)) (or $x2522 (= S2_V1_!2462 S2_V1_!2452)) (or $x4764 (= S2_V1_!2462 S2_V1_!2479)) (or $x547 (= S2_V1_!2474 S2_V1_!2452)) (or $x1344 (= S2_V1_!2474 S2_V1_!2462)) (or $x6081 (= S2_V1_!2474 S2_V1_!2479)) (or $x3581 (= S1_V4_!2451 S1_V4_!2461)) (or (not (or (not R_S1_V1) (= E1_!2446 E1_!2467))) (= S1_V4_!2451 S1_V4_!2472)) (or $x710 $x75) (or $x5445 $x1253) (or $x359 $x1517) (or $x3406 (= S2_V2_!2454 S2_V2_!2481)) (or $x2713 $x5802) (or (not $x2469) $x4175) (or $x3227 $x4736) (or $x3406 $x2121) (or $x2522 $x3044) (or $x4764 $x1406) (or $x547 $x1945) (or $x1344 $x5042) (or $x6081 $x727) (not MW_S1_V1) (not MW_S1_V2) (or (not MW_S1_V5) W_S1_V5) (or (not MW_S1_V4) W_S1_V4) (or (not MW_S2_V1) W_S2_V1) (or (not MW_S2_V3) W_S2_V3) (or (not MW_S2_V2) W_S2_V2) (or (not MW_S2_V5) W_S2_V5))))
 (or (not $x6060) (not $x2306) (and (= ?x2414 ?x950) $x3248 (= ?x3662 ?x2737) $x779 $x2210))))))))))))))))))))))))))))))))))))))))))))))))))))))))))))))))))))))))))))))))))))))))))))))))
 )
 )
 )
 )
 )
 )
 )
 )
 )
 )
 )
 )
 )
 )
 )
 )
 )
 )
 )
 )
 )
 )
 )
 )
 )
 )
 )
 )
 )
 )
 )
 )
 )
 )
 )
 )
 )
 )
 )
 )
 )
 )
 )
 )
 )
 )
 )
 )
 )
 )
 )
 ))
 (let (($x5915 (not (or (and W_S2_V2 R_E1_V2) (and W_S2_V5 R_E1_V5) R_E1_V4))))
 (let (($x83 (= DISJ_W_S2_R_E1 $x5915)))
 (let (($x2402 (and W_S2_V5 R_S2_V5)))
 (let (($x2036 (and W_S2_V2 R_S2_V2)))
 (let (($x1544 (and W_S2_V3 R_S2_V3)))
 (let (($x2809 (and W_S2_V1 R_S2_V1)))
 (let (($x1734 (= DISJ_W_S2_R_S2 (not (or $x2809 $x1544 $x2036 $x2402 R_S2_V4)))))
 (let (($x1786 (and W_S2_V5 R_S1_V5)))
 (let (($x3846 (and W_S2_V2 R_S1_V2)))
 (let (($x1782 (and W_S2_V3 R_S1_V3)))
 (let (($x5897 (and W_S2_V1 R_S1_V1)))
 (let (($x1367 (= DISJ_W_S2_R_S1 (not (or $x5897 $x1782 $x3846 $x1786 R_S1_V4)))))
 (let (($x2434 (= DISJ_W_S1_W_S2 (not (or W_S2_V3 (and W_S1_V5 W_S2_V5) W_S1_V4)))))
 (let (($x1526 (not R_E1_V3)))
 (let (($x319 (not (or R_S2_V3 (and W_S1_V5 R_S2_V5) (and W_S1_V4 R_S2_V4)))))
 (let (($x1028 (= DISJ_W_S1_R_S2 $x319)))
 (let (($x1105 (not (or R_S1_V3 (and W_S1_V5 R_S1_V5) (and W_S1_V4 R_S1_V4)))))
 (let (($x98 (= DISJ_W_S1_R_S1 $x1105)))
 (let (($x572 (not R_S1_V1)))
 (let (($x1545 (and $x572 DISJ_W_S1_R_S1)))
 (let (($x2599 (and $x2746 DISJ_W_S2_R_S1 DISJ_W_S1_R_S1)))
 (let (($x4438 (or $x2599 $x462 $x1545)))
 (let (($x3425 (not W_S1_V2)))
 (let (($x1884 (not W_S1_V1)))
 (let (($x253 (not R_E1_V1)))
 (let (($x4315 (and DISJ_W_S1_R_E1 $x253 $x1884 $x3425 $x4438 W_S1_V3 W_S2_V4 $x98 $x1028 $x1526 $x2434 $x1367 $x1734 $x83 $x1581 $x5006 $x3119)))
 (and $x4315 $x5824 $x2398 $x4118 $x2144 $x5318 $x2424 $x2628 $x2756 $x1602 $x2100 $x4997 $x5485 $x4282 $x113 $x2158))))))))))))))))))))))))))))))))))))))))))))))))))))
(check-sat)
